# SCIP version 3.0.2.1

detection/emphfast/enabled = TRUE
detection/smartscore/enabled = FALSE
detectors/isomorph/overruleemphasis = TRUE
detectors/isomorph/maxdecompsexact = 0
detectors/isomorph/maxdecompsextend = 1